Phonons of Si at X
 &inputph
  tr2_ph=1.0d-14,
  amass(1)=28.0855,
  prefix='SIPH',
  !outdir='directory where large files are written/'
  outdir='./tmp'
  fildyn='si.dynX',
 /
 1.0 0.0 0.0
