Phonons of Si at L
 &inputph
  tr2_ph=1.0d-14,
  amass(1)=28.0855,
  prefix='SIPH',
  !outdir='directory where large files are written/'
  outdir='./tmp'
  fildyn='si.dynL',
 /
 0.5 0.5 0.5
