phonons of C at Gamma
 &inputph
  tr2_ph=1.0d-16,
  prefix='C',
  amass(1)=12.0107,
  !outdir='directory where large files are written/'
  outdir='./tmp'
  epsil=.true.
  fildyn='C.dynG',
 /
0.0 0.0 0.0
