phonons of Ni at gamma
 &inputph
  tr2_ph=1.0d-16,
  prefix='ni',
  ldisp=.true.,
  nq1=4,
  nq2=4,
  nq3=4,
  amass(1)=58.6934,
  outdir='./tmp',
  fildyn='ni.dyn'
 /
