 &input
   fildyn='ni.dyn',
   zasr='simple',
   flfrc='ni444.fc'
 /
