phonons of Si
 &inputph
  tr2_ph=1.0d-14,
  ldisp=.true.,
  nq1=4, nq2=4, nq3=4
  amass(1)=28.0855,
  prefix='PH',
  !outdir='directory where large files are written/'
  outdir='./tmp'
  fildyn='si.dyn',
 /
