 &input
   fildyn='si.dyn', zasr='simple', flfrc='si444.fc'
 /
